Version identifier: 12.10.0.0 | 2019-11-26 | 843d4de
CPXPARAM_WorkMem                                 28672
Tried aggregator 2 times.
MIP Presolve eliminated 10 rows and 0 columns.
MIP Presolve added 20 rows and 0 columns.
Aggregator did 30 substitutions.
Reduced MIP has 52 rows, 50 columns, and 208 nonzeros.
Reduced MIP has 50 binaries, 0 generals, 0 SOSs, and 0 indicators.
Presolve time = 0,00 sec. (0,38 ticks)
Found incumbent of value 36,000000 after 0,00 sec. (0,45 ticks)
Probing fixed 1 vars, tightened 0 bounds.
Probing time = 0,00 sec. (0,16 ticks)
Tried aggregator 1 time.
Detecting symmetries...
MIP Presolve eliminated 1 rows and 1 columns.
Reduced MIP has 51 rows, 49 columns, and 202 nonzeros.
Reduced MIP has 49 binaries, 0 generals, 0 SOSs, and 0 indicators.
Presolve time = 0,00 sec. (0,16 ticks)
Probing time = 0,00 sec. (0,15 ticks)
Clique table members: 203.
MIP emphasis: balance optimality and feasibility.
MIP search method: dynamic search.
Parallel mode: deterministic, using up to 16 threads.
Root relaxation solution time = 0,00 sec. (0,10 ticks)

        Nodes                                         Cuts/
   Node  Left     Objective  IInf  Best Integer    Best Bound    ItCnt     Gap

*     0+    0                           36,0000        1,0000            97,22%
*     0+    0                           33,0000        1,0000            96,97%
*     0+    0                           31,0000        1,0000            96,77%
      0     0       20,0480    36       31,0000       20,0480       23   35,33%
      0     0       25,6665    36       31,0000     Cuts: 112       67   17,20%
      0     0       26,7205    36       31,0000      Cuts: 67       93   13,80%
      0     0       26,8166    36       31,0000      Cuts: 15      100   13,49%
      0     0       26,8292    36       31,0000   ZeroHalf: 2      101   13,45%
      0     0       26,8372    36       31,0000   ZeroHalf: 1      102   13,43%
Detecting symmetries...
      0     0       26,8728    36       31,0000   ZeroHalf: 4      105   13,31%
      0     0       26,8880    36       31,0000       Cuts: 6      111   13,26%
      0     0       26,8942    36       31,0000      Cuts: 16      115   13,24%
      0     0       26,9082    36       31,0000      Cuts: 12      121   13,20%
      0     0       26,9279    36       31,0000      Cuts: 22      131   13,14%
      0     0       26,9437    36       31,0000      Cuts: 12      143   13,08%
      0     0       26,9745    36       31,0000      Cuts: 13      154   12,99%
      0     0       26,9989    36       31,0000      Cuts: 29      165   12,91%
      0     0       27,0252    36       31,0000      Cuts: 12      175   12,82%
      0     0       27,0528    36       31,0000      Cuts: 13      185   12,73%
      0     0       27,0687    36       31,0000       Cuts: 6      192   12,68%
      0     0       27,0798    36       31,0000       Cuts: 6      198   12,65%
      0     0       27,0972    36       31,0000       Cuts: 4      202   12,59%
      0     0       27,1278    36       31,0000      Cuts: 10      211   12,49%
      0     0       27,1349    36       31,0000       Cuts: 9      217   12,47%
      0     0       27,1391    36       31,0000       Cuts: 2      221   12,45%
      0     0       27,1399    36       31,0000       Cuts: 4      223   12,45%
      0     0        cutoff             31,0000       31,0000      223    0,00%
Elapsed time = 0,06 sec. (20,34 ticks, tree = 0,01 MB, solutions = 3)

Clique cuts applied:  8
Cover cuts applied:  3
Implied bound cuts applied:  5
Mixed integer rounding cuts applied:  3
Zero-half cuts applied:  11
Gomory fractional cuts applied:  2

Root node processing (before b&c):
  Real time             =    0,06 sec. (20,34 ticks)
Parallel b&c, 16 threads:
  Real time             =    0,00 sec. (0,00 ticks)
  Sync time (average)   =    0,00 sec.
  Wait time (average)   =    0,00 sec.
                          ------------
Total (root+branch&cut) =    0,06 sec. (20,34 ticks)
